p cnf 12 50 
-10 3 -4 0
6 -10 5 0
4 3 5 0
9 -6 -3 0
5 -3 12 0
-4 8 12 0
-6 2 9 0
5 -9 11 0
-11 -6 -8 0
-3 -7 -11 0
2 7 11 0
-7 -5 -9 0
12 2 1 0
5 3 9 0
-7 -6 10 0
-6 10 -7 0
12 -1 -5 0
-8 6 -11 0
10 1 9 0
4 1 3 0
2 -8 -6 0
-3 -10 -6 0
10 -2 5 0
1 -9 12 0
2 3 -8 0
12 6 2 0
3 2 10 0
1 6 -3 0
-5 8 -11 0
5 1 3 0
-9 5 -12 0
5 9 4 0
-4 -11 -6 0
5 8 -10 0
-1 -4 10 0
2 8 6 0
-5 6 -10 0
-8 -3 12 0
-3 -1 7 0
6 1 9 0
2 9 -1 0
2 -1 -11 0
4 -12 -2 0
12 -10 -3 0
8 1 3 0
11 5 -4 0
3 -12 7 0
-10 -12 1 0
-4 5 -6 0
2 12 -9 0
